Minimize
  - 15 y_0 - 8 y_1 - 2 y_2 - 15 y_3 - 15 y_4 - 18 y_6 - 19 y_7 - 17 y_8
   - 5 y_9 - 24 y_10 - 3 y_11 - 10 y_12 - 16 y_13 - 11 y_14 - 4 y_15
   - 8 y_16 - 22 y_17 - 17 y_18 - 11 y_19 + 35 x_0_1 + 4 x_0_3 + 58 x_0_4
   + 73 x_0_5 + 67 x_0_7 + 69 x_0_10 + 57 x_0_11 + 76 x_0_13 + 62 x_0_15
   + 37 x_0_16 + 49 x_0_17 + 40 x_0_18 + 31 x_1_2 + 36 x_1_3 + 19 x_1_9
   + 24 x_1_11 + 41 x_1_12 + 26 x_1_14 + 35 x_1_15 + 5 x_1_16 + 73 x_1_17
   + 39 x_1_19 + 66 x_2_3 + 65 x_2_4 + 77 x_2_6 + 77 x_2_8 + 13 x_2_9
   + 38 x_2_12 + 66 x_2_13 + 102 x_2_17 + 44 x_2_19 + 62 x_3_4 + 73 x_3_5
   + 10 x_3_8 + 55 x_3_9 + 72 x_3_10 + 57 x_3_11 + 72 x_3_12 + 17 x_3_14
   + 61 x_3_15 + 39 x_3_16 + 52 x_3_17 + 66 x_3_19 + 33 x_4_6 + 66 x_4_8
   + 54 x_4_9 + 52 x_4_10 + 67 x_4_11 + 35 x_4_12 + 65 x_4_14 + 81 x_4_15
   + 56 x_4_17 + 25 x_4_18 + 88 x_5_6 + 83 x_5_8 + 23 x_5_9 + 121 x_5_10
   + 15 x_5_11 + 49 x_5_12 + 57 x_5_14 + 20 x_5_15 + 40 x_5_16 + 112 x_5_17
   + 57 x_5_19 + 33 x_6_7 + 40 x_6_8 + 65 x_6_9 + 35 x_6_10 + 74 x_6_11
   + 61 x_6_12 + 53 x_6_13 + 52 x_6_14 + 85 x_6_15 + 48 x_6_16 + 26 x_6_17
   + 8 x_6_18 + 51 x_6_19 + 73 x_7_8 + 73 x_7_9 + 85 x_7_11 + 100 x_7_15
   + 62 x_7_16 + 49 x_7_17 + 28 x_7_18 + 43 x_7_19 + 65 x_8_9 + 69 x_8_10
   + 80 x_8_12 + 85 x_8_13 + 27 x_8_14 + 71 x_8_15 + 45 x_8_18 + 13 x_9_11
   + 33 x_9_12 + 59 x_9_13 + 43 x_9_14 + 28 x_9_15 + 18 x_9_16 + 89 x_9_17
   + 61 x_9_18 + 108 x_10_11 + 87 x_10_12 + 67 x_10_13 + 86 x_10_14
   + 25 x_10_17 + 37 x_10_18 + 75 x_10_19 + 45 x_11_12 + 72 x_11_13
   + 42 x_11_14 + 16 x_11_15 + 26 x_11_16 + 71 x_11_18 + 50 x_11_19
   + 30 x_12_13 + 66 x_12_14 + 61 x_12_15 + 86 x_12_17 + 88 x_13_15
   + 45 x_13_18 + 22 x_13_19 + 44 x_14_15 + 67 x_14_17 + 53 x_14_18
   + 38 x_15_16 + 106 x_15_17 + 82 x_15_18 + 65 x_15_19 + 72 x_16_17
   + 45 x_16_18 + 34 x_16_19 + 32 x_17_18 + 76 x_17_19 + 240 Constant
Subject To
 c_0: y_7 = 1
 c_1_0: y_0 >= 1
 c_1_1: y_1 >= 1
 c_1_2: y_2 >= 1
 c_1_3: y_3 >= 1
 c_1_4: y_4 >= 1
 c_1_5: y_5 >= 1
 c_1_6: y_6 >= 1
 c_1_7: y_7 >= 1
 c_1_8: y_8 >= 1
 c_1_9: y_9 >= 1
 c_1_10: y_10 >= 1
 c_1_11: y_11 >= 1
 c_1_12: y_12 >= 1
 c_1_13: y_13 >= 1
 c_1_14: y_14 >= 1
 c_1_15: y_15 >= 1
 c_1_16: y_16 >= 1
 c_1_17: y_17 >= 1
 c_1_18: y_18 >= 1
 c_1_19: y_19 >= 1
 c_2_0: - 2 y_0 + x_0_1 + x_0_3 + x_0_4 + x_0_5 + x_0_7 + x_0_10 + x_0_11
   + x_0_13 + x_0_15 + x_0_16 + x_0_17 + x_0_18 = 0
 c_2_1: - 2 y_1 + x_0_1 + x_1_2 + x_1_3 + x_1_9 + x_1_11 + x_1_12 + x_1_14
   + x_1_15 + x_1_16 + x_1_17 + x_1_19 = 0
 c_2_2: - 2 y_2 + x_1_2 + x_2_3 + x_2_4 + x_2_6 + x_2_8 + x_2_9 + x_2_12
   + x_2_13 + x_2_17 + x_2_19 = 0
 c_2_3: - 2 y_3 + x_0_3 + x_1_3 + x_2_3 + x_3_4 + x_3_5 + x_3_8 + x_3_9
   + x_3_10 + x_3_11 + x_3_12 + x_3_14 + x_3_15 + x_3_16 + x_3_17 + x_3_19
   = 0
 c_2_4: - 2 y_4 + x_0_4 + x_2_4 + x_3_4 + x_4_6 + x_4_8 + x_4_9 + x_4_10
   + x_4_11 + x_4_12 + x_4_14 + x_4_15 + x_4_17 + x_4_18 = 0
 c_2_5: - 2 y_5 + x_0_5 + x_3_5 + x_5_6 + x_5_8 + x_5_9 + x_5_10 + x_5_11
   + x_5_12 + x_5_14 + x_5_15 + x_5_16 + x_5_17 + x_5_19 = 0
 c_2_6: - 2 y_6 + x_2_6 + x_4_6 + x_5_6 + x_6_7 + x_6_8 + x_6_9 + x_6_10
   + x_6_11 + x_6_12 + x_6_13 + x_6_14 + x_6_15 + x_6_16 + x_6_17 + x_6_18
   + x_6_19 = 0
 c_2_7: - 2 y_7 + x_0_7 + x_6_7 + x_7_8 + x_7_9 + x_7_11 + x_7_15 + x_7_16
   + x_7_17 + x_7_18 + x_7_19 = 0
 c_2_8: - 2 y_8 + x_2_8 + x_3_8 + x_4_8 + x_5_8 + x_6_8 + x_7_8 + x_8_9
   + x_8_10 + x_8_12 + x_8_13 + x_8_14 + x_8_15 + x_8_18 = 0
 c_2_9: - 2 y_9 + x_1_9 + x_2_9 + x_3_9 + x_4_9 + x_5_9 + x_6_9 + x_7_9
   + x_8_9 + x_9_11 + x_9_12 + x_9_13 + x_9_14 + x_9_15 + x_9_16 + x_9_17
   + x_9_18 = 0
 c_2_10: - 2 y_10 + x_0_10 + x_3_10 + x_4_10 + x_5_10 + x_6_10 + x_8_10
   + x_10_11 + x_10_12 + x_10_13 + x_10_14 + x_10_17 + x_10_18 + x_10_19
   = 0
 c_2_11: - 2 y_11 + x_0_11 + x_1_11 + x_3_11 + x_4_11 + x_5_11 + x_6_11
   + x_7_11 + x_9_11 + x_10_11 + x_11_12 + x_11_13 + x_11_14 + x_11_15
   + x_11_16 + x_11_18 + x_11_19 = 0
 c_2_12: - 2 y_12 + x_1_12 + x_2_12 + x_3_12 + x_4_12 + x_5_12 + x_6_12
   + x_8_12 + x_9_12 + x_10_12 + x_11_12 + x_12_13 + x_12_14 + x_12_15
   + x_12_17 = 0
 c_2_13: - 2 y_13 + x_0_13 + x_2_13 + x_6_13 + x_8_13 + x_9_13 + x_10_13
   + x_11_13 + x_12_13 + x_13_15 + x_13_18 + x_13_19 = 0
 c_2_14: - 2 y_14 + x_1_14 + x_3_14 + x_4_14 + x_5_14 + x_6_14 + x_8_14
   + x_9_14 + x_10_14 + x_11_14 + x_12_14 + x_14_15 + x_14_17 + x_14_18
   = 0
 c_2_15: - 2 y_15 + x_0_15 + x_1_15 + x_3_15 + x_4_15 + x_5_15 + x_6_15
   + x_7_15 + x_8_15 + x_9_15 + x_11_15 + x_12_15 + x_13_15 + x_14_15
   + x_15_16 + x_15_17 + x_15_18 + x_15_19 = 0
 c_2_16: - 2 y_16 + x_0_16 + x_1_16 + x_3_16 + x_5_16 + x_6_16 + x_7_16
   + x_9_16 + x_11_16 + x_15_16 + x_16_17 + x_16_18 + x_16_19 = 0
 c_2_17: - 2 y_17 + x_0_17 + x_1_17 + x_2_17 + x_3_17 + x_4_17 + x_5_17
   + x_6_17 + x_7_17 + x_9_17 + x_10_17 + x_12_17 + x_14_17 + x_15_17
   + x_16_17 + x_17_18 + x_17_19 = 0
 c_2_18: - 2 y_18 + x_0_18 + x_4_18 + x_6_18 + x_7_18 + x_8_18 + x_9_18
   + x_10_18 + x_11_18 + x_13_18 + x_14_18 + x_15_18 + x_16_18 + x_17_18
   = 0
 c_2_19: - 2 y_19 + x_1_19 + x_2_19 + x_3_19 + x_5_19 + x_6_19 + x_7_19
   + x_10_19 + x_11_19 + x_13_19 + x_15_19 + x_16_19 + x_17_19 = 0
Bounds
 Constant = 1
Binaries
 y_0 y_1 y_2 y_3 y_4 y_5 y_6 y_7 y_8 y_9 y_10 y_11 y_12 y_13 y_14 y_15 y_16
 y_17 y_18 y_19 x_0_1 x_0_3 x_0_4 x_0_5 x_0_7 x_0_10 x_0_11 x_0_13 x_0_15
 x_0_16 x_0_17 x_0_18 x_1_2 x_1_3 x_1_9 x_1_11 x_1_12 x_1_14 x_1_15 x_1_16
 x_1_17 x_1_19 x_2_3 x_2_4 x_2_6 x_2_8 x_2_9 x_2_12 x_2_13 x_2_17 x_2_19
 x_3_4 x_3_5 x_3_8 x_3_9 x_3_10 x_3_11 x_3_12 x_3_14 x_3_15 x_3_16 x_3_17
 x_3_19 x_4_6 x_4_8 x_4_9 x_4_10 x_4_11 x_4_12 x_4_14 x_4_15 x_4_17 x_4_18
 x_5_6 x_5_8 x_5_9 x_5_10 x_5_11 x_5_12 x_5_14 x_5_15 x_5_16 x_5_17 x_5_19
 x_6_7 x_6_8 x_6_9 x_6_10 x_6_11 x_6_12 x_6_13 x_6_14 x_6_15 x_6_16 x_6_17
 x_6_18 x_6_19 x_7_8 x_7_9 x_7_11 x_7_15 x_7_16 x_7_17 x_7_18 x_7_19 x_8_9
 x_8_10 x_8_12 x_8_13 x_8_14 x_8_15 x_8_18 x_9_11 x_9_12 x_9_13 x_9_14
 x_9_15 x_9_16 x_9_17 x_9_18 x_10_11 x_10_12 x_10_13 x_10_14 x_10_17
 x_10_18 x_10_19 x_11_12 x_11_13 x_11_14 x_11_15 x_11_16 x_11_18 x_11_19
 x_12_13 x_12_14 x_12_15 x_12_17 x_13_15 x_13_18 x_13_19 x_14_15 x_14_17
 x_14_18 x_15_16 x_15_17 x_15_18 x_15_19 x_16_17 x_16_18 x_16_19 x_17_18
 x_17_19
End
